SDVRP instances/custom_instances/p01_11_split0.vrp
NAME:p01_11_split
BEST_KNOWN: 0
COMMENT: 0
DIMENSION: 199
CAPACITY: 160
EDGE_WEIGHT_FORMAT: FUNCTION
EDGE_WEIGHT_TYPE: EXACT_2D
NODE_COORD_SECTION
1 0.00000 0.00000
2 41 28
3 41 28
4 41 28
5 -30 -25
6 -30 -25
7 -30 -25
8 -30 -25
9 43 -35
10 43 -35
11 43 -35
12 43 -35
13 30 -14
14 30 -14
15 -12 -15
16 -12 -15
17 -12 -15
18 -12 -15
19 -12 -15
20 -12 -15
21 -48 -2
22 -48 -2
23 -48 -2
24 -48 -2
25 -48 -2
26 44 0
27 44 0
28 44 0
29 44 0
30 44 0
31 44 0
32 -29 36
33 -29 36
34 -29 36
35 -29 36
36 -29 36
37 -2 3
38 -2 3
39 -2 3
40 -15 29
41 -15 29
42 -15 29
43 -15 29
44 -15 29
45 -26 -34
46 -26 -34
47 -26 -34
48 -1 42
49 -1 42
50 -1 42
51 -1 42
52 -1 42
53 35 -33
54 35 -33
55 -31 -30
56 -31 -30
57 -19 19
58 -19 19
59 -19 19
60 -19 19
61 -28 -22
62 -28 -22
63 -28 -22
64 -28 -22
65 -28 -22
66 -28 -22
67 -47 -29
68 -47 -29
69 -47 -29
70 -47 -29
71 -47 -29
72 -47 -29
73 -47 -29
74 46 44
75 46 44
76 46 44
77 46 44
78 46 44
79 -36 14
80 -36 14
81 -36 14
82 -36 14
83 -36 14
84 34 0
85 34 0
86 18 9
87 18 9
88 18 9
89 18 9
90 29 -49
91 29 -49
92 21 -1
93 21 -1
94 21 -1
95 28 29
96 28 29
97 28 29
98 -24 -25
99 -24 -25
100 -24 -25
101 -24 -25
102 -15 -24
103 -15 -24
104 -15 -24
105 -32 31
106 -32 31
107 -32 31
108 -32 31
109 -32 31
110 -28 11
111 -28 11
112 5 41
113 5 41
114 5 41
115 5 41
116 5 41
117 5 41
118 32 -43
119 32 -43
120 32 -43
121 32 -43
122 -12 -5
123 -12 -5
124 -12 -5
125 -12 -5
126 -12 -5
127 -33 -22
128 -33 -22
129 -33 -22
130 18 -2
131 18 -2
132 18 -2
133 11 16
134 11 16
135 11 16
136 -46 -16
137 -46 -16
138 -46 -16
139 -35 19
140 -35 19
141 -35 19
142 -35 19
143 -13 -39
144 -13 -39
145 -13 -39
146 -13 -39
147 0 15
148 0 15
149 0 15
150 0 15
151 0 15
152 30 -45
153 30 -45
154 30 -45
155 30 -45
156 30 -45
157 -12 -42
158 -12 -42
159 -34 24
160 -34 24
161 -34 24
162 -34 24
163 18 40
164 18 40
165 18 40
166 18 40
167 18 40
168 18 40
169 -27 12
170 -27 12
171 -27 12
172 -27 12
173 -27 12
174 -27 12
175 17 25
176 17 25
177 17 25
178 -6 6
179 -6 6
180 -6 6
181 -36 -44
182 -36 -44
183 -36 -44
184 -36 -44
185 -36 -44
186 20 -44
187 20 -44
188 20 -44
189 14 2
190 14 2
191 14 2
192 -19 -45
193 -19 -45
194 -19 -45
195 -19 -45
196 7 -22
197 7 -22
198 7 -22
199 7 -22
DEMAND_SECTION
1 0
2 32
3 16
4 1
5 32
6 2
7 2
8 2
9 16
10 2
11 2
12 1
13 32
14 8
15 32
16 32
17 8
18 2
19 2
20 2
21 32
22 32
23 2
24 2
25 1
26 32
27 32
28 8
29 2
30 2
31 2
32 32
33 16
34 2
35 2
36 1
37 32
38 16
39 1
40 32
41 32
42 8
43 2
44 1
45 16
46 8
47 1
48 16
49 8
50 2
51 2
52 2
53 32
54 2
55 32
56 32
57 32
58 16
59 8
60 2
61 32
62 32
63 2
64 2
65 2
66 1
67 32
68 16
69 8
70 2
71 2
72 2
73 1
74 32
75 16
76 8
77 2
78 1
79 32
80 32
81 2
82 2
83 1
84 32
85 1
86 32
87 16
88 8
89 1
90 32
91 2
92 32
93 32
94 2
95 32
96 32
97 1
98 32
99 16
100 8
101 1
102 32
103 16
104 2
105 16
106 8
107 2
108 2
109 1
110 32
111 2
112 32
113 32
114 2
115 2
116 2
117 1
118 16
119 2
120 2
121 1
122 32
123 8
124 2
125 2
126 1
127 32
128 8
129 1
130 32
131 16
132 1
133 16
134 8
135 1
136 32
137 8
138 2
139 32
140 16
141 8
142 2
143 16
144 2
145 2
146 2
147 32
148 16
149 2
150 2
151 1
152 32
153 32
154 2
155 2
156 2
157 32
158 1
159 16
160 8
161 2
162 2
163 32
164 32
165 8
166 2
167 2
168 2
169 32
170 16
171 8
172 2
173 2
174 2
175 16
176 2
177 2
178 32
179 32
180 8
181 32
182 16
183 8
184 2
185 1
186 32
187 2
188 2
189 16
190 8
191 1
192 16
193 8
194 2
195 2
196 32
197 8
198 2
199 1
DEPOT_SECTION
1
-1
EOF