SDVRP instances/custom_instances/p01_11_split0.sol
198 -13 12 53 52 11 8 10 9 118 119 120 117 196 195 197 198 -24 20 23 21 22 136 137 135 127 126 128 -37 38 36 178 179 177 -43 41 40 39 42 35 31 34 32 33 104 105 106 107 108 -55 181 180 184 183 182 66 68 71 70 72 69 67 64 62 -58 56 59 57 172 171 173 170 169 168 109 110 -79 80 82 81 78 138 139 140 141 160 159 158 161 -83 84 30 27 29 28 26 25 85 86 -88 87 2 3 1 73 76 77 74 75 95 -96 94 164 165 163 162 167 166 174 175 176 132 134 133 -97 100 99 5 7 4 6 65 61 60 63 122 124 123 125 -98 54 44 45 46 193 194 192 191 157 156 143 144 142 145 -103 101 102 14 17 18 19 15 16 121 -116 115 112 111 113 114 50 49 47 51 48 146 147 148 149 150 -131 130 129 92 91 93 188 190 189 -155 154 151 153 152 90 89 186 187 185 0 





OBJ=
1481.977
BEST_KNOWN=
0.000